000 000 000 000 000 000 000 -99 -99 -99 -99 -99 000 000 000 -99 -99 -99 000 000 000 000 -99 -99 000 000 -99 000 -99 -99 -99
000 000 000 000 000 000 000 -99 -99 -99 -99 -99 -99 000 000 000 -99 -99 -99 000 000 000 -99 -99 000 000 -99 000 -99 -99 -99
-99 000 000 000 000 000 000 -99 -99 000 -99 -99 -99 -99 000 000 -99 -99 -99 000 000 000 000 000 000 000 -99 000 000 -99 -99
-99 -99 000 -99 -99 -99 000 -99 -99 000 000 -99 000 -99 000 -99 000 -99 -99 000 000 000 000 000 000 000 -99 -99 -99 -99 -99
000 000 000 000 -99 -99 -99 000 000 000 000 -99 000 000 000 000 -99 000 -99 000 000 000 000 000 000 000 -99 -99 -99 -99 -99
000 000 000 002 -99 -99 -99 000 000 000 000 -99 000 000 000 000 -99 -99 -99 000 000 000 000 000 -99 -99 -99 -99 -99 -99 000
000 000 000 000 002 -99 -99 000 000 000 000 000 000 000 000 000 000 -99 -99 000 000 000 000 000 000 -99 -99 -99 -99 -99 -99
000 000 000 000 000 000 -99 000 000 000 000 000 -99 -99 000 000 000 000 -99 000 000 -99 000 000 000 -99 -99 -99 -99 -99 -99
-99 000 000 000 000 000 -99 000 000 000 000 000 000 006 -99 000 000 000 000 -99 000 -99 -99 000 000 -99 -99 -99 -99 -99 -99
000 000 000 000 000 000 -99 000 000 000 000 000 000 004 001 000 -99 000 000 000 000 -99 -99 -99 -99 000 -99 -99 -99 000 000
000 000 000 000 000 000 -99 000 000 000 000 000 000 002 019 000 000 000 000 000 -99 -99 -99 -99 000 -99 -99 -99 -99 000 000
000 000 000 000 000 000 000 000 000 000 000 000 000 004 005 000 000 000 000 000 -99 -99 -99 000 000 -99 -99 -99 -99 000 000
000 000 000 000 000 000 000 000 000 000 000 000 000 000 005 000 000 -99 000 000 000 000 -99 000 000 000 -99 -99 -99 000 000
000 000 000 000 000 000 000 000 000 000 000 000 000 000 -99 000 000 000 000 000 000 000 -99 000 000 000 000 -99 -99 -99 -99
000 000 000 000 000 000 000 000 000 -99 -99 000 000 000 000 000 000 000 -99 000 000 000 -99 000 000 000 000 -99 -99 -99 -99
000 -99 000 000 -99 000 000 000 000 -99 -99 -99 -99 000 000 000 000 000 000 000 -99 000 -99 000 000 000 000 -99 000 000 -99
000 -99 -99 -99 -99 -99 000 000 000 -99 -99 -99 -99 000 000 000 000 000 -99 -99 -99 000 000 -99 000 000 000 -99 -99 000 000
000 000 000 -99 -99 -99 000 000 000 -99 000 -99 -99 -99 -99 -99 000 000 -99 -99 -99 000 000 -99 -99 -99 -99 -99 -99 000 000
000 000 000 000 -99 -99 -99 000 000 -99 -99 -99 -99 -99 -99 -99 000 000 000 -99 000 000 000 -99 000 -99 -99 -99 -99 000 000
000 000 000 000 -99 -99 -99 000 000 -99 000 -99 -99 -99 -99 -99 000 000 000 -99 000 000 000 -99 -99 -99 -99 -99 -99 -99 -99
000 000 000 000 000 -99 -99 000 000 000 000 -99 -99 000 -99 -99 000 000 000 000 000 000 000 -99 -99 -99 -99 -99 -99 -99 -99
000 000 000 000 000 000 -99 000 000 000 -99 -99 -99 000 -99 000 000 -99 000 000 000 000 000 -99 -99 -99 -99 -99 -99 -99 -99
000 000 000 000 000 000 000 000 000 000 -99 -99 -99 000 000 000 000 -99 000 000 000 000 000 -99 -99 -99 -99 -99 -99 -99 -99
000 000 000 000 000 000 000 000 000 000 -99 -99 000 000 000 000 000 000 000 000 000 000 000 -99 -99 -99 -99 -99 -99 -99 000
000 000 000 000 000 000 -99 000 000 -99 -99 -99 000 000 000 000 000 000 000 000 000 000 000 -99 -99 -99 -99 -99 -99 -99 000
000 000 000 000 000 000 000 000 000 000 -99 -99 000 000 000 000 000 000 000 000 000 000 -99 -99 -99 -99 -99 -99 -99 000 000
000 000 000 000 000 000 000 000 000 000 000 -99 000 000 000 000 000 000 000 000 000 000 -99 -99 -99 -99 -99 -99 -99 000 000
000 000 000 000 000 000 000 000 000 000 -99 -99 -99 -99 -99 000 000 000 000 000 000 000 -99 -99 -99 -99 -99 -99 -99 000 000
000 000 000 000 000 000 000 000 000 000 -99 -99 -99 -99 000 000 000 000 000 000 000 000 -99 -99 -99 -99 -99 -99 -99 000 000
000 000 000 000 000 000 -99 000 000 000 -99 -99 -99 000 000 000 000 000 000 000 000 000 -99 -99 -99 -99 -99 -99 -99 -99 -99
000 000 000 000 000 000 000 000 000 000 -99 -99 -99 000 000 000 000 000 000 000 000 000 -99 -99 -99 -99 -99 -99 -99 -99 -99
000 000 000 000 000 000 000 000 000 -99 -99 -99 -99 000 000 -99 000 000 000 000 -99 -99 000 000 000 000 -99 -99 -99 -99 -99
000 000 000 000 000 000 000 000 000 -99 -99 -99 -99 000 000 -99 000 000 000 -99 -99 000 000 000 000 000 -99 -99 000 -99 000
000 000 000 000 000 000 000 000 000 000 -99 -99 -99 000 000 000 000 000 000 000 -99 000 000 000 000 000 000 000 000 -99 000
000 000 000 000 000 000 000 000 000 000 -99 -99 000 000 000 -99 000 -99 000 000 000 000 000 000 000 000 000 000 000 000 000
000 000 000 000 000 000 000 000 000 000 -99 000 000 000 000 000 -99 -99 000 000 000 000 -99 000 000 000 -99 000 000 000 000
000 000 000 000 000 -99 -99 000 000 000 -99 -99 000 000 000 -99 000 000 000 000 000 000 000 000 000 000 -99 000 000 000 000
000 -99 000 000 000 -99 -99 000 000 -99 -99 000 000 000 000 000 000 000 000 -99 000 -99 000 000 000 000 000 000 000 000 000
-99 000 000 000 000 -99 -99 -99 -99 -99 -99 -99 000 000 000 000 000 000 -99 -99 000 -99 000 000 000 -99 000 000 -99 000 -99
000 000 000 000 000 -99 -99 -99 -99 -99 -99 000 000 000 000 000 000 000 -99 -99 000 -99 000 000 000 -99 -99 -99 -99 000 -99
000 000 -99 000 000 -99 -99 -99 -99 -99 000 000 000 000 000 000 -99 -99 -99 000 000 -99 000 000 -99 -99 -99 -99 -99 000 -99
000 000 -99 000 -99 000 000 000 000 -99 000 000 000 000 000 000 -99 000 -99 000 -99 -99 000 000 -99 -99 -99 -99 -99 -99 -99
-99 -99 -99 -99 -99 000 000 000 000 000 000 000 000 000 000 000 -99 000 000 000 -99 -99 -99 000 000 -99 -99 -99 -99 -99 -99
-99 -99 -99 -99 -99 000 000 -99 -99 -99 -99 000 000 000 000 000 -99 000 000 000 -99 -99 -99 -99 000 -99 -99 -99 -99 -99 -99
-99 -99 -99 -99 -99 000 000 -99 -99 -99 -99 000 000 000 000 000 000 000 000 000 -99 -99 -99 000 000 -99 000 000 -99 -99 -99
000 -99 -99 -99 -99 -99 -99 -99 -99 -99 -99 000 000 -99 000 000 000 000 000 000 000 -99 -99 000 000 000 000 000 -99 -99 -99
000 -99 -99 -99 -99 -99 -99 -99 -99 -99 000 000 000 000 000 000 -99 -99 000 000 000 000 000 000 -99 000 000 -99 -99 -99 -99
-99 -99 -99 -99 -99 -99 -99 -99 -99 -99 -99 000 -99 -99 000 -99 -99 000 000 000 000 000 000 000 000 000 000 -99 000 -99 -99
-99 -99 -99 -99 -99 -99 -99 -99 -99 -99 -99 000 -99 -99 -99 -99 -99 000 000 000 000 000 000 000 000 000 000 000 000 000 -99
-99 -99 -99 -99 -99 -99 -99 -99 -99 -99 -99 -99 -99 -99 -99 -99 000 000 000 -99 000 000 000 000 000 000 000 000 -99 -99 -99
-99 -99 -99 -99 -99 -99 -99 -99 -99 -99 -99 -99 -99 -99 -99 -99 000 000 000 000 000 000 -99 -99 -99 -99 000 -99 -99 -99 -99
-99 -99 -99 -99 -99 -99 -99 -99 -99 -99 -99 -99 -99 -99 -99 000 -99 000 000 000 000 -99 -99 -99 -99 -99 -99 -99 -99 -99 -99
-99 -99 -99 -99 -99 -99 -99 -99 -99 -99 -99 -99 -99 -99 -99 -99 -99 000 000 000 -99 -99 -99 -99 -99 -99 -99 -99 -99 -99 -99
-99 -99 -99 -99 -99 -99 -99 -99 -99 -99 -99 -99 -99 -99 -99 -99 -99 000 000 -99 -99 -99 -99 -99 -99 -99 -99 -99 -99 -99 -99
-99 -99 -99 -99 -99 -99 -99 -99 -99 -99 -99 -99 -99 -99 -99 -99 -99 000 000 -99 -99 -99 -99 -99 -99 -99 -99 -99 -99 -99 -99
